p wcnf 119 238 239 
1 -37 -76 0 
1 60 70 0 
1 9 -7 0 
1 -43 39 0 
1 114 -21 0 
1 38 -113 0 
1 20 57 0 
1 105 -52 0 
1 -92 -43 0 
1 -101 111 0 
1 -32 50 0 
1 69 104 0 
1 90 8 0 
1 -47 -86 0 
1 -66 -16 0 
1 -95 -50 0 
1 -82 86 0 
1 -29 -65 0 
1 74 -28 0 
1 83 -97 0 
1 50 -52 0 
1 -34 18 0 
1 -119 38 0 
1 69 -109 0 
1 33 -48 0 
1 32 -73 0 
1 80 -42 0 
1 12 -51 0 
1 50 22 0 
1 -25 -116 0 
1 -63 -99 0 
1 51 4 0 
1 -55 -93 0 
1 -83 21 0 
1 -68 75 0 
1 39 50 0 
1 -14 -118 0 
1 -20 62 0 
1 1 -81 0 
1 -98 -119 0 
1 -82 -118 0 
1 82 62 0 
1 -38 -89 0 
1 67 75 0 
1 -45 10 0 
1 -106 109 0 
1 -81 -98 0 
1 73 -39 0 
1 80 97 0 
1 3 17 0 
1 28 85 0 
1 61 78 0 
1 -46 7 0 
1 60 -25 0 
1 52 50 0 
1 108 -8 0 
1 -26 70 0 
1 53 -21 0 
1 33 19 0 
1 95 46 0 
1 108 74 0 
1 -73 -66 0 
1 87 -104 0 
1 -15 -74 0 
1 78 -28 0 
1 -86 -9 0 
1 119 -21 0 
1 60 -77 0 
1 96 100 0 
1 58 100 0 
1 -64 46 0 
1 48 -32 0 
1 -68 104 0 
1 -9 -83 0 
1 110 -14 0 
1 -15 41 0 
1 119 -45 0 
1 -105 -30 0 
1 -9 56 0 
1 -62 18 0 
1 -40 101 0 
1 108 -105 0 
1 -84 107 0 
1 -71 83 0 
1 -112 115 0 
1 44 33 0 
1 -22 89 0 
1 -107 109 0 
1 59 109 0 
1 103 -50 0 
1 90 -29 0 
1 84 -18 0 
1 58 -110 0 
1 30 13 0 
1 81 56 0 
1 24 -12 0 
1 -22 112 0 
1 65 26 0 
1 -101 -11 0 
1 23 111 0 
1 -34 8 0 
1 92 -43 0 
1 -52 -107 0 
1 -48 -30 0 
1 -75 11 0 
1 -91 20 0 
1 12 -42 0 
1 -6 -23 0 
1 101 83 0 
1 28 6 0 
1 -114 -68 0 
1 95 -94 0 
1 -32 -37 0 
1 -52 77 0 
1 69 -51 0 
1 25 41 0 
1 102 -23 0 
1 -50 -24 0 
1 54 85 0 
1 -46 -26 0 
1 -41 48 0 
1 81 69 0 
1 -69 -53 0 
1 -108 63 0 
1 -3 54 0 
1 73 -53 0 
1 -105 -15 0 
1 -113 70 0 
1 -66 -98 0 
1 29 -90 0 
1 23 34 0 
1 -5 -109 0 
1 -2 84 0 
1 59 118 0 
1 19 -106 0 
1 18 59 0 
1 50 58 0 
1 -99 18 0 
1 89 96 0 
1 -5 -71 0 
1 2 12 0 
1 80 -103 0 
1 8 -114 0 
1 -27 -116 0 
1 61 -35 0 
1 -93 59 0 
1 -15 103 0 
1 60 74 0 
1 36 -104 0 
1 -52 48 0 
1 -1 -51 0 
1 -113 74 0 
1 70 -23 0 
1 21 103 0 
1 4 91 0 
1 113 -84 0 
1 -29 13 0 
1 -26 -6 0 
1 86 -82 0 
1 72 -30 0 
1 101 -32 0 
1 116 -58 0 
1 -105 -82 0 
1 12 18 0 
1 -36 51 0 
1 -45 39 0 
1 8 -25 0 
1 -70 -24 0 
1 37 -119 0 
1 -77 69 0 
1 -117 -71 0 
1 -4 -32 0 
1 115 11 0 
1 -111 -114 0 
1 89 -90 0 
1 -50 -46 0 
1 -115 -8 0 
1 -57 50 0 
1 65 19 0 
1 3 92 0 
1 83 -90 0 
1 -78 -5 0 
1 110 87 0 
1 64 -72 0 
1 -104 -79 0 
1 -2 -78 0 
1 76 -12 0 
1 27 16 0 
1 117 -71 0 
1 1 -96 0 
1 -84 -118 0 
1 70 -53 0 
1 42 -97 0 
1 30 -45 0 
1 -100 117 0 
1 -85 81 0 
1 75 93 0 
1 112 -28 0 
1 -5 43 0 
1 -7 17 0 
1 -34 9 0 
1 36 88 0 
1 92 36 0 
1 77 26 0 
1 -42 -77 0 
1 111 -72 0 
1 58 -85 0 
1 -58 45 0 
1 -66 -26 0 
1 52 63 0 
1 69 115 0 
1 109 8 0 
1 60 -15 0 
1 115 -79 0 
1 -111 83 0 
1 1 -96 0 
1 -6 -29 0 
1 9 91 0 
1 113 61 0 
1 109 107 0 
1 -27 -97 0 
1 64 -27 0 
1 31 63 0 
1 75 -73 0 
1 14 99 0 
1 -73 -12 0 
1 -96 102 0 
1 53 -119 0 
1 78 -62 0 
1 62 73 0 
1 -85 -110 0 
1 59 34 0 
1 95 88 0 
1 -114 -90 0 
1 96 21 0 
1 -45 78 0 
1 -39 95 0 
1 -25 -72 0 
